solution status: optimal solution found
objective value:                     143563.643432868
d11(0,0)                                            1 	(obj:0)
d11(1,1)                                            1 	(obj:0)
d11(1,2)                                            1 	(obj:0)
d11(2,3)                                            1 	(obj:0)
d11(2,4)                                            1 	(obj:0)
d11(2,5)                                            1 	(obj:0)
d11(3,7)                                            1 	(obj:0)
d11(3,8)                                            1 	(obj:0)
d11(3,9)                                            1 	(obj:0)
d11(3,10)                           0.999999999999996 	(obj:0)
d11(3,11)                                           1 	(obj:0)
d11(3,13)                                           1 	(obj:0)
d11(3,14)                                           1 	(obj:0)
d12(4,15)                                           1 	(obj:0)
d12(4,16)                                           1 	(obj:0)
d12(4,17)                                           1 	(obj:0)
d12(4,18)                                           1 	(obj:0)
d12(4,19)                                           1 	(obj:0)
d12(4,20)                                           1 	(obj:0)
d12(4,21)                                           1 	(obj:0)
d12(4,22)                                           1 	(obj:0)
d12(4,23)                                           1 	(obj:0)
d12(4,24)                                           1 	(obj:0)
d12(4,25)                            1.00000000000001 	(obj:0)
d12(4,26)                                           1 	(obj:0)
d12(4,27)                                           1 	(obj:0)
d12(4,28)                                           1 	(obj:0)
d12(4,29)                                           1 	(obj:0)
d12(4,30)                                           1 	(obj:0)
d21(2,3)                                            1 	(obj:0)
d21(3,7)                                            1 	(obj:0)
d21(3,8)                                            1 	(obj:0)
d21(3,9)                                            1 	(obj:0)
d21(3,11)                                           1 	(obj:0)
d21(4,15)                                           1 	(obj:0)
d21(4,16)                                           1 	(obj:0)
d21(4,17)                                           1 	(obj:0)
d21(4,18)                                           1 	(obj:0)
d21(4,19)                                           1 	(obj:0)
d21(4,20)                                           1 	(obj:0)
d21(4,23)                                           1 	(obj:0)
d21(4,24)                                           1 	(obj:0)
y2(4,15)                              817.10515672507 	(obj:0)
y2(4,16)                             2309.53006572501 	(obj:0)
y2(4,17)                              817.10515672507 	(obj:0)
y2(4,18)                             2309.53006572501 	(obj:0)
y2(4,19)                              817.10515672507 	(obj:0)
y2(4,20)                             2309.53006572501 	(obj:0)
y2(4,21)                              817.10515672507 	(obj:0)
y2(4,22)                             2309.53006572501 	(obj:0)
y2(4,23)                              817.10515672507 	(obj:0)
y2(4,24)                             2309.53006572501 	(obj:0)
y2(4,25)                             817.105156725101 	(obj:0)
y2(4,26)                             2309.53006572501 	(obj:0)
y2(4,27)                              817.10515672507 	(obj:0)
y2(4,28)                             2309.53006572501 	(obj:0)
y2(4,29)                              817.10515672507 	(obj:0)
y2(4,30)                             2309.53006572501 	(obj:0)
STE(1,1)                             8484.75010111118 	(obj:0)
STE(0,0)                                        11025 	(obj:0)
STE(1,2)                                        10143 	(obj:0)
STE(2,3)                             5944.50020222234 	(obj:0)
STE(2,4)                             7602.75010111118 	(obj:0)
STE(2,5)                             7602.75010111115 	(obj:0)
STE(2,6)                                         9261 	(obj:0)
STE(3,7)                             3404.25030333349 	(obj:0)
STE(3,8)                             5062.50020222231 	(obj:0)
STE(3,9)                             5062.50020222229 	(obj:0)
STE(3,10)                            6720.75010111118 	(obj:0)
STE(3,11)                            5062.50020222226 	(obj:0)
STE(3,12)                            6720.75010111115 	(obj:0)
STE(3,13)                            6720.75010111115 	(obj:0)
STE(3,14)                            8378.99999999997 	(obj:0)
STE(4,15)                            3298.50020222231 	(obj:0)
STE(4,16)                            4716.30386577225 	(obj:0)
STE(4,17)                            4956.75010111113 	(obj:0)
STE(4,18)                            6374.55376466107 	(obj:0)
STE(4,19)                             4956.7501011111 	(obj:0)
STE(4,20)                            6374.55376466104 	(obj:0)
STE(4,21)                                        6615 	(obj:0)
STE(4,22)                            8032.80366354994 	(obj:0)
STE(4,23)                            4956.75010111107 	(obj:0)
STE(4,24)                            6374.55376466101 	(obj:0)
STE(4,25)                                        6615 	(obj:0)
STE(4,26)                            8032.80366354991 	(obj:0)
STE(4,27)                            6614.99999999997 	(obj:0)
STE(4,28)                            8032.80366354991 	(obj:0)
STE(4,29)                            8273.24989888879 	(obj:0)
STE(4,30)                            9691.05356243873 	(obj:0)
y1(3,11)                             1492.42490900001 	(obj:0)
y1(3,13)                             1492.42490899996 	(obj:0)
AVE(1)                               3265.91696791192 	(obj:0)
AVE(2)                               3332.74178563731 	(obj:0)
AVE(3)                               3444.11697932125 	(obj:0)
WB(4)                                3399.56511093778 	(obj:0)
AVE(4)                               3399.56511093778 	(obj:0)
WG(1)                                3265.91696791192 	(obj:10)
WG(2)                                3332.74178563731 	(obj:10)
WG(3)                                3444.11697932125 	(obj:10)
BG(1)                                930.375531067644 	(obj:10)
BG(2)                                863.550713342281 	(obj:10)
BG(3)                                752.175519658342 	(obj:10)
BG(4)                                1767.48684634801 	(obj:10)
y1(1,1)                              1492.42490899994 	(obj:0)
y1(2,3)                              1492.42490899996 	(obj:0)
y1(2,5)                              1492.42490899996 	(obj:0)
y1(3,7)                              1492.42490899996 	(obj:0)
y1(3,9)                              1492.42490900001 	(obj:0)
